50
150
98
94
94
93
92
92
92
91
85
84
84
81
81
79
79
78
76
73
72
71
68
68
67
67
65
63
61
60
60
59
59
58
57
56
55
48
47
46
45
43
40
40
39
38
37
35
34
32
31
31
